Geographic Exponential Decay
20 298 195 37 130 56 227 205 231 30 187 77 134 45 136 167 74 241 212 264 5
p edge 320 1200
e 0 17 13.0
e 0 228 1.0
e 1 183 8.0
e 1 65 21.0
e 1 180 17.0
e 1 222 10.0
e 1 11 12.0
e 1 225 12.0
e 1 37 33.0
e 1 175 15.0
e 1 123 2.0
e 1 174 13.0
e 2 141 2.0
e 2 64 2.0
e 3 53 4.0
e 3 297 7.0
e 4 240 5.0
e 4 138 4.0
e 4 135 4.0
e 5 220 1.0
e 5 180 16.0
e 5 280 81.0
e 5 60 10.0
e 5 224 99.0
e 5 154 66.0
e 5 256 19.0
e 5 292 97.0
e 5 120 1.0
e 5 312 96.0
e 5 121 7.0
e 5 26 38.0
e 5 244 51.0
e 5 145 19.0
e 5 241 17.0
e 5 105 35.0
e 5 286 81.0
e 5 152 70.0
e 5 27 37.0
e 5 141 54.0
e 5 316 6.0
e 5 252 58.0
e 5 90 23.0
e 5 47 98.0
e 5 306 46.0
e 5 219 51.0
e 5 251 16.0
e 5 250 38.0
e 5 99 27.0
e 5 277 73.0
e 5 237 64.0
e 5 242 86.0
e 5 123 51.0
e 5 178 73.0
e 5 93 43.0
e 5 148 29.0
e 5 238 74.0
e 6 130 88.0
e 6 135 2.0
e 7 87 1.0
e 7 130 80.0
e 8 296 1.0
e 8 22 2.0
e 9 239 1.0
e 9 307 1.0
e 9 173 9.0
e 9 34 1.0
e 9 78 2.0
e 10 52 23.0
e 10 255 1.0
e 10 19 15.0
e 10 0 1.0
e 10 172 18.0
e 10 138 13.0
e 10 278 8.0
e 10 214 10.0
e 10 104 13.0
e 10 290 9.0
e 11 132 13.0
e 12 238 1.0
e 12 254 2.0
e 13 43 12.0
e 13 55 4.0
e 13 3 4.0
e 14 271 3.0
e 14 156 1.0
e 15 44 22.0
e 15 244 1.0
e 15 198 1.0
e 15 88 4.0
e 15 157 1.0
e 16 194 1.0
e 16 255 1.0
e 17 162 17.0
e 17 55 24.0
e 17 56 26.0
e 17 285 11.0
e 17 11 22.0
e 17 305 16.0
e 17 19 1.0
e 17 47 19.0
e 17 313 33.0
e 18 210 2.0
e 18 292 2.0
e 20 141 1.0
e 20 112 2.0
e 21 257 1.0
e 21 60 1.0
e 22 53 1.0
e 23 312 5.0
e 23 222 11.0
e 24 4 1.0
e 24 298 36.0
e 25 193 11.0
e 25 136 95.0
e 26 303 1.0
e 27 28 3.0
e 28 240 1.0
e 29 96 7.0
e 29 57 2.0
e 29 308 2.0
e 30 278 22.0
e 30 294 42.0
e 30 145 50.0
e 30 292 13.0
e 30 119 32.0
e 30 229 18.0
e 30 201 16.0
e 30 223 85.0
e 30 42 20.0
e 30 279 72.0
e 30 280 29.0
e 30 198 25.0
e 30 239 91.0
e 30 81 46.0
e 30 25 36.0
e 30 217 99.0
e 30 41 81.0
e 30 175 5.0
e 30 107 61.0
e 30 204 68.0
e 30 139 94.0
e 30 31 79.0
e 30 267 91.0
e 30 313 86.0
e 30 47 62.0
e 30 147 34.0
e 30 102 34.0
e 30 185 71.0
e 30 66 16.0
e 30 273 92.0
e 30 228 13.0
e 30 261 3.0
e 30 205 95.0
e 30 91 56.0
e 30 160 45.0
e 30 82 43.0
e 30 215 57.0
e 31 117 24.0
e 31 39 10.0
e 31 218 22.0
e 31 28 1.0
e 31 184 19.0
e 31 227 76.0
e 31 114 2.0
e 31 161 21.0
e 31 283 5.0
e 32 70 5.0
e 32 238 7.0
e 32 171 8.0
e 32 113 11.0
e 32 297 23.0
e 33 293 2.0
e 33 294 1.0
e 34 244 5.0
e 34 219 1.0
e 35 315 1.0
e 35 212 17.0
e 36 181 5.0
e 36 37 53.0
e 37 44 99.0
e 37 248 9.0
e 37 283 41.0
e 37 272 34.0
e 37 274 56.0
e 37 102 2.0
e 37 21 40.0
e 37 268 29.0
e 37 216 95.0
e 37 164 100.0
e 37 207 31.0
e 37 10 13.0
e 37 233 96.0
e 37 3 5.0
e 37 127 6.0
e 37 292 4.0
e 37 189 16.0
e 37 273 15.0
e 37 107 48.0
e 37 147 98.0
e 37 180 28.0
e 37 169 56.0
e 37 242 49.0
e 37 290 35.0
e 37 238 21.0
e 37 104 93.0
e 37 173 91.0
e 37 63 55.0
e 37 291 64.0
e 37 29 53.0
e 37 81 92.0
e 37 126 40.0
e 37 12 87.0
e 37 286 43.0
e 37 69 9.0
e 38 103 1.0
e 38 27 1.0
e 39 314 1.0
e 40 75 5.0
e 40 290 4.0
e 40 119 6.0
e 41 258 1.0
e 42 165 6.0
e 43 307 3.0
e 43 205 40.0
e 43 116 7.0
e 43 36 3.0
e 44 92 23.0
e 44 219 34.0
e 44 150 32.0
e 44 99 25.0
e 44 4 22.0
e 44 155 48.0
e 44 294 9.0
e 44 117 3.0
e 44 191 20.0
e 44 87 19.0
e 44 88 11.0
e 44 193 29.0
e 44 180 15.0
e 44 106 46.0
e 44 307 25.0
e 44 280 25.0
e 44 118 3.0
e 45 209 37.0
e 45 248 52.0
e 45 293 41.0
e 45 22 10.0
e 45 294 52.0
e 45 196 60.0
e 45 112 70.0
e 45 18 36.0
e 45 131 59.0
e 45 316 75.0
e 45 279 43.0
e 45 221 77.0
e 45 84 1.0
e 45 81 94.0
e 45 47 19.0
e 45 25 14.0
e 45 140 100.0
e 45 261 45.0
e 45 136 9.0
e 45 309 40.0
e 45 177 36.0
e 45 167 19.0
e 45 23 28.0
e 45 170 6.0
e 45 236 81.0
e 45 24 42.0
e 45 86 49.0
e 45 199 4.0
e 45 153 64.0
e 45 253 61.0
e 45 161 100.0
e 45 303 40.0
e 45 208 46.0
e 45 55 98.0
e 45 141 9.0
e 45 32 60.0
e 45 33 69.0
e 46 247 19.0
e 46 1 8.0
e 46 272 5.0
e 46 3 9.0
e 46 146 18.0
e 46 36 3.0
e 46 100 16.0
e 46 308 1.0
e 46 261 19.0
e 46 61 21.0
e 48 135 2.0
e 48 213 23.0
e 49 163 2.0
e 49 189 3.0
e 49 75 6.0
e 50 274 1.0
e 50 81 9.0
e 51 157 2.0
e 51 177 1.0
e 52 165 4.0
e 53 179 5.0
e 54 141 1.0
e 54 31 9.0
e 56 292 66.0
e 56 225 57.0
e 56 147 28.0
e 56 306 1.0
e 56 217 23.0
e 56 307 47.0
e 56 62 6.0
e 56 160 33.0
e 56 206 45.0
e 56 150 92.0
e 56 129 72.0
e 56 212 27.0
e 56 133 31.0
e 56 61 69.0
e 56 194 79.0
e 56 53 23.0
e 56 182 8.0
e 56 234 53.0
e 56 256 93.0
e 56 183 28.0
e 56 37 61.0
e 56 63 31.0
e 56 64 50.0
e 56 163 59.0
e 56 158 53.0
e 56 239 53.0
e 56 267 5.0
e 56 151 97.0
e 56 291 41.0
e 56 44 18.0
e 56 278 44.0
e 56 35 35.0
e 56 65 51.0
e 56 41 17.0
e 56 130 79.0
e 56 247 22.0
e 57 208 5.0
e 58 89 2.0
e 58 110 1.0
e 59 8 1.0
e 59 76 1.0
e 62 240 2.0
e 62 317 4.0
e 65 317 1.0
e 66 53 1.0
e 67 247 2.0
e 67 273 2.0
e 68 96 11.0
e 68 290 3.0
e 68 142 2.0
e 68 261 7.0
e 68 192 1.0
e 69 190 4.0
e 69 231 81.0
e 70 29 2.0
e 71 260 6.0
e 71 95 3.0
e 71 299 3.0
e 72 22 2.0
e 72 229 4.0
e 72 8 5.0
e 73 232 2.0
e 73 132 17.0
e 73 76 3.0
e 74 137 81.0
e 74 274 34.0
e 74 268 65.0
e 74 199 15.0
e 74 155 26.0
e 74 244 5.0
e 74 255 79.0
e 74 257 90.0
e 74 136 100.0
e 74 293 16.0
e 74 177 96.0
e 74 133 14.0
e 74 305 46.0
e 74 303 70.0
e 74 96 30.0
e 74 17 25.0
e 74 68 57.0
e 74 292 57.0
e 74 5 43.0
e 74 88 66.0
e 74 243 70.0
e 74 285 86.0
e 74 294 57.0
e 74 222 43.0
e 74 51 31.0
e 74 135 57.0
e 74 30 6.0
e 74 54 47.0
e 74 237 78.0
e 74 282 35.0
e 74 27 99.0
e 74 72 54.0
e 74 304 17.0
e 74 143 94.0
e 74 152 20.0
e 74 117 78.0
e 74 261 92.0
e 76 308 3.0
e 77 23 13.0
e 77 10 12.0
e 77 174 65.0
e 77 9 37.0
e 77 104 40.0
e 77 289 82.0
e 77 69 84.0
e 77 165 11.0
e 77 244 71.0
e 77 152 75.0
e 77 245 12.0
e 77 119 96.0
e 77 194 13.0
e 77 306 47.0
e 77 275 78.0
e 77 40 67.0
e 77 11 55.0
e 77 203 62.0
e 77 34 82.0
e 77 159 96.0
e 77 74 86.0
e 77 101 95.0
e 77 224 80.0
e 77 48 90.0
e 77 35 28.0
e 77 36 22.0
e 77 153 2.0
e 77 300 98.0
e 77 293 5.0
e 77 274 57.0
e 77 251 12.0
e 77 314 38.0
e 77 95 47.0
e 77 118 32.0
e 77 231 20.0
e 77 232 84.0
e 77 303 20.0
e 78 42 1.0
e 79 305 1.0
e 79 265 7.0
e 79 181 16.0
e 79 280 3.0
e 79 140 23.0
e 79 299 15.0
e 79 229 21.0
e 79 48 9.0
e 79 137 15.0
e 79 204 24.0
e 80 126 2.0
e 80 153 1.0
e 81 100 8.0
e 82 219 1.0
e 83 38 4.0
e 83 194 2.0
e 83 149 1.0
e 84 75 5.0
e 84 248 12.0
e 84 253 2.0
e 84 4 5.0
e 85 317 5.0
e 85 2 4.0
e 85 59 5.0
e 86 49 10.0
e 86 164 8.0
e 86 265 4.0
e 86 121 11.0
e 87 18 4.0
e 89 245 3.0
e 90 246 2.0
e 91 264 98.0
e 91 115 41.0
e 91 301 37.0
e 91 83 45.0
e 91 84 17.0
e 91 244 6.0
e 91 76 43.0
e 91 287 18.0
e 91 309 43.0
e 91 67 35.0
e 91 225 41.0
e 91 310 38.0
e 91 128 50.0
e 91 293 41.0
e 91 173 42.0
e 91 161 42.0
e 91 256 15.0
e 91 103 30.0
e 92 260 1.0
e 93 214 5.0
e 94 309 1.0
e 94 222 3.0
e 94 102 5.0
e 96 141 23.0
e 96 146 2.0
e 96 169 5.0
e 96 258 9.0
e 96 192 14.0
e 96 106 9.0
e 96 37 5.0
e 97 233 2.0
e 97 301 1.0
e 98 29 2.0
e 98 292 12.0
e 98 206 21.0
e 98 116 1.0
e 98 154 16.0
e 98 287 16.0
e 98 184 19.0
e 98 18 16.0
e 98 193 10.0
e 98 45 31.0
e 101 89 12.0
e 101 287 1.0
e 101 82 8.0
e 101 5 90.0
e 105 89 1.0
e 108 266 2.0
e 108 57 3.0
e 108 179 3.0
e 109 253 1.0
e 109 77 2.0
e 110 257 2.0
e 111 189 1.0
e 111 267 1.0
e 113 211 6.0
e 113 257 3.0
e 114 269 2.0
e 115 241 52.0
e 115 153 2.0
e 116 106 5.0
e 118 312 3.0
e 120 57 5.0
e 120 81 2.0
e 120 30 22.0
e 120 109 1.0
e 122 298 28.0
e 122 248 1.0
e 124 216 6.0
e 124 165 3.0
e 124 31 1.0
e 125 30 19.0
e 125 244 32.0
e 125 165 1.0
e 125 23 47.0
e 125 240 28.0
e 125 31 14.0
e 125 161 25.0
e 125 124 39.0
e 125 20 40.0
e 125 126 46.0
e 125 151 15.0
e 125 46 14.0
e 125 66 40.0
e 125 232 22.0
e 125 263 12.0
e 125 152 10.0
e 125 146 24.0
e 125 302 16.0
e 125 315 21.0
e 127 38 2.0
e 128 211 2.0
e 129 171 6.0
e 129 93 6.0
e 129 222 3.0
e 129 123 9.0
e 130 239 7.0
e 130 19 78.0
e 130 178 55.0
e 130 247 92.0
e 130 230 39.0
e 130 175 93.0
e 130 257 81.0
e 130 280 74.0
e 130 231 10.0
e 130 57 99.0
e 130 20 49.0
e 130 296 53.0
e 130 115 72.0
e 130 258 99.0
e 130 122 30.0
e 130 176 14.0
e 130 281 84.0
e 130 144 69.0
e 130 197 68.0
e 130 201 77.0
e 130 68 94.0
e 130 110 34.0
e 130 233 48.0
e 130 232 35.0
e 130 200 18.0
e 130 16 4.0
e 130 101 64.0
e 130 235 78.0
e 130 8 32.0
e 130 254 4.0
e 130 314 90.0
e 130 189 51.0
e 130 246 39.0
e 130 236 23.0
e 131 137 1.0
e 132 121 10.0
e 132 99 4.0
e 132 42 1.0
e 132 90 14.0
e 132 208 3.0
e 132 218 17.0
e 132 184 14.0
e 132 1 17.0
e 133 254 1.0
e 134 5 73.0
e 134 21 41.0
e 134 280 45.0
e 134 179 85.0
e 134 279 31.0
e 134 244 12.0
e 134 108 18.0
e 134 228 81.0
e 134 25 79.0
e 134 97 15.0
e 134 156 72.0
e 134 3 23.0
e 134 195 88.0
e 134 6 2.0
e 134 316 86.0
e 134 48 79.0
e 134 14 41.0
e 134 304 54.0
e 134 270 74.0
e 134 49 18.0
e 134 318 94.0
e 134 35 82.0
e 134 246 69.0
e 134 111 58.0
e 134 126 91.0
e 134 56 74.0
e 134 296 72.0
e 134 144 29.0
e 134 140 71.0
e 134 187 63.0
e 134 261 35.0
e 134 196 80.0
e 134 99 84.0
e 134 282 100.0
e 134 36 62.0
e 134 273 78.0
e 134 115 19.0
e 136 60 70.0
e 136 286 67.0
e 136 27 97.0
e 136 118 69.0
e 136 252 1.0
e 136 193 77.0
e 136 174 78.0
e 136 280 7.0
e 136 231 54.0
e 136 243 92.0
e 136 96 54.0
e 136 91 75.0
e 136 310 28.0
e 136 290 11.0
e 136 61 1.0
e 136 58 39.0
e 136 156 95.0
e 136 124 79.0
e 136 164 45.0
e 136 67 97.0
e 136 39 40.0
e 136 57 76.0
e 136 297 88.0
e 136 119 88.0
e 136 239 80.0
e 136 78 37.0
e 136 84 4.0
e 136 134 38.0
e 136 171 62.0
e 136 263 13.0
e 136 266 12.0
e 136 92 19.0
e 136 77 2.0
e 136 116 25.0
e 139 101 4.0
e 139 56 38.0
e 140 46 15.0
e 140 40 14.0
e 140 118 19.0
e 140 137 1.0
e 140 97 18.0
e 140 54 4.0
e 140 13 18.0
e 142 174 1.0
e 143 309 6.0
e 143 77 81.0
e 143 98 15.0
e 143 209 4.0
e 148 190 1.0
e 149 150 3.0
e 149 122 2.0
e 155 127 3.0
e 157 275 3.0
e 158 210 1.0
e 159 158 2.0
e 162 316 11.0
e 162 104 9.0
e 162 18 4.0
e 162 113 4.0
e 166 150 1.0
e 166 33 1.0
e 167 73 12.0
e 167 264 22.0
e 167 201 68.0
e 167 99 95.0
e 167 158 20.0
e 167 16 76.0
e 167 208 55.0
e 167 96 22.0
e 167 287 31.0
e 167 92 5.0
e 167 275 19.0
e 167 290 79.0
e 167 220 35.0
e 167 58 10.0
e 167 224 93.0
e 167 69 55.0
e 167 6 26.0
e 167 191 58.0
e 167 31 75.0
e 167 119 42.0
e 167 10 20.0
e 167 142 100.0
e 167 104 61.0
e 167 5 19.0
e 167 183 47.0
e 167 202 83.0
e 167 70 100.0
e 167 52 6.0
e 167 288 20.0
e 167 55 7.0
e 167 230 19.0
e 167 118 75.0
e 167 107 75.0
e 167 291 92.0
e 167 175 32.0
e 167 234 33.0
e 168 152 3.0
e 168 214 4.0
e 169 87 4.0
e 170 121 7.0
e 170 53 6.0
e 170 183 3.0
e 170 307 1.0
e 172 56 56.0
e 176 239 2.0
e 179 231 28.0
e 179 244 23.0
e 179 142 14.0
e 179 248 22.0
e 179 144 14.0
e 179 296 1.0
e 179 43 12.0
e 181 2 1.0
e 182 241 40.0
e 182 59 8.0
e 182 196 8.0
e 182 26 11.0
e 185 234 1.0
e 185 279 3.0
e 185 88 1.0
e 185 206 14.0
e 185 217 11.0
e 185 52 20.0
e 185 310 19.0
e 185 28 4.0
e 185 159 15.0
e 186 188 2.0
e 186 10 19.0
e 186 270 19.0
e 187 60 22.0
e 187 123 32.0
e 187 1 25.0
e 187 281 100.0
e 187 177 94.0
e 187 128 66.0
e 187 118 63.0
e 187 119 32.0
e 187 9 89.0
e 187 85 38.0
e 187 2 3.0
e 187 7 49.0
e 187 124 74.0
e 187 26 66.0
e 187 228 64.0
e 187 304 85.0
e 187 278 10.0
e 187 86 25.0
e 187 151 57.0
e 187 292 2.0
e 187 63 33.0
e 187 77 24.0
e 187 192 83.0
e 187 237 80.0
e 187 223 34.0
e 187 298 56.0
e 187 3 36.0
e 187 135 98.0
e 187 70 61.0
e 187 4 51.0
e 187 52 94.0
e 187 10 8.0
e 187 235 81.0
e 187 76 76.0
e 187 146 94.0
e 187 316 85.0
e 188 60 2.0
e 190 132 17.0
e 193 302 4.0
e 195 262 38.0
e 195 252 96.0
e 195 116 40.0
e 195 115 13.0
e 195 135 90.0
e 195 119 5.0
e 195 130 28.0
e 195 186 15.0
e 195 8 11.0
e 195 122 23.0
e 195 131 77.0
e 195 2 11.0
e 195 73 53.0
e 195 15 53.0
e 195 148 84.0
e 195 168 43.0
e 195 234 79.0
e 195 132 46.0
e 195 36 40.0
e 195 167 95.0
e 195 173 96.0
e 195 158 26.0
e 195 62 76.0
e 195 192 86.0
e 195 317 16.0
e 195 179 29.0
e 195 110 70.0
e 195 96 39.0
e 195 51 2.0
e 195 196 30.0
e 195 301 38.0
e 195 133 2.0
e 195 103 46.0
e 195 193 44.0
e 195 299 31.0
e 195 128 7.0
e 197 241 23.0
e 197 58 6.0
e 197 47 9.0
e 197 0 10.0
e 198 187 37.0
e 198 56 10.0
e 198 181 9.0
e 198 8 4.0
e 198 159 1.0
e 198 237 23.0
e 198 13 9.0
e 198 275 1.0
e 199 33 5.0
e 200 42 1.0
e 202 127 2.0
e 203 58 1.0
e 205 45 71.0
e 205 243 19.0
e 205 272 30.0
e 205 224 38.0
e 205 166 8.0
e 205 111 71.0
e 205 106 45.0
e 205 52 68.0
e 205 235 9.0
e 205 202 8.0
e 205 226 96.0
e 205 86 18.0
e 205 206 37.0
e 205 102 27.0
e 205 250 89.0
e 205 263 43.0
e 205 115 5.0
e 205 179 64.0
e 205 3 79.0
e 205 140 70.0
e 205 146 89.0
e 205 287 20.0
e 205 173 82.0
e 205 215 18.0
e 205 170 25.0
e 205 183 50.0
e 205 270 20.0
e 205 186 84.0
e 205 302 74.0
e 205 6 21.0
e 205 33 9.0
e 205 247 43.0
e 205 130 60.0
e 205 222 86.0
e 205 78 75.0
e 207 96 13.0
e 208 195 60.0
e 212 214 26.0
e 212 253 14.0
e 212 299 92.0
e 212 54 58.0
e 212 61 66.0
e 212 58 89.0
e 212 313 17.0
e 212 155 6.0
e 212 93 85.0
e 212 140 22.0
e 212 111 19.0
e 212 113 25.0
e 212 232 5.0
e 212 318 96.0
e 212 241 89.0
e 212 39 4.0
e 212 69 43.0
e 212 293 90.0
e 212 219 2.0
e 212 291 76.0
e 212 292 21.0
e 212 284 94.0
e 212 29 80.0
e 212 319 6.0
e 212 227 84.0
e 212 21 19.0
e 212 68 58.0
e 212 231 32.0
e 212 50 85.0
e 212 172 16.0
e 212 71 3.0
e 212 167 48.0
e 212 141 58.0
e 212 187 100.0
e 212 273 41.0
e 213 14 13.0
e 213 257 42.0
e 213 232 30.0
e 213 207 27.0
e 213 244 49.0
e 213 149 48.0
e 213 231 5.0
e 213 283 37.0
e 213 21 33.0
e 213 230 4.0
e 213 265 47.0
e 213 284 40.0
e 213 51 3.0
e 213 80 41.0
e 213 228 26.0
e 213 136 100.0
e 213 179 37.0
e 213 114 4.0
e 214 292 2.0
e 218 46 5.0
e 220 145 11.0
e 220 88 7.0
e 220 71 7.0
e 221 39 2.0
e 221 155 4.0
e 223 20 9.0
e 223 315 5.0
e 223 6 9.0
e 226 293 4.0
e 226 54 3.0
e 227 266 45.0
e 227 207 41.0
e 227 165 76.0
e 227 182 45.0
e 227 102 6.0
e 227 116 17.0
e 227 200 38.0
e 227 232 65.0
e 227 108 34.0
e 227 106 44.0
e 227 177 47.0
e 227 242 29.0
e 227 148 31.0
e 227 115 4.0
e 227 32 81.0
e 227 131 12.0
e 227 100 67.0
e 227 178 64.0
e 227 15 73.0
e 227 118 48.0
e 227 37 37.0
e 227 224 48.0
e 227 269 68.0
e 227 228 4.0
e 227 14 49.0
e 227 155 86.0
e 227 179 69.0
e 227 103 44.0
e 227 16 48.0
e 227 313 74.0
e 227 88 64.0
e 227 276 75.0
e 227 19 93.0
e 227 285 24.0
e 227 231 85.0
e 231 182 20.0
e 231 272 69.0
e 231 89 99.0
e 231 23 18.0
e 231 94 51.0
e 231 40 86.0
e 231 193 57.0
e 231 96 51.0
e 231 27 77.0
e 231 283 67.0
e 231 317 98.0
e 231 234 100.0
e 231 173 69.0
e 231 251 69.0
e 231 293 98.0
e 231 216 12.0
e 231 184 74.0
e 231 217 72.0
e 231 252 88.0
e 231 5 23.0
e 231 43 2.0
e 231 119 77.0
e 231 305 90.0
e 231 180 57.0
e 231 238 74.0
e 231 237 66.0
e 231 11 48.0
e 231 57 8.0
e 231 245 61.0
e 241 204 64.0
e 241 245 85.0
e 241 301 50.0
e 241 51 73.0
e 241 172 96.0
e 241 130 13.0
e 241 100 28.0
e 241 150 13.0
e 241 222 12.0
e 241 287 88.0
e 241 7 54.0
e 241 271 55.0
e 241 193 51.0
e 241 17 3.0
e 241 282 56.0
e 241 219 88.0
e 241 30 91.0
e 241 191 68.0
e 241 116 26.0
e 241 251 85.0
e 241 236 36.0
e 241 62 71.0
e 241 148 63.0
e 241 256 77.0
e 241 18 96.0
e 241 64 46.0
e 241 147 57.0
e 241 315 55.0
e 241 123 97.0
e 241 283 85.0
e 241 247 66.0
e 241 228 27.0
e 249 131 2.0
e 249 220 5.0
e 249 109 3.0
e 250 179 1.0
e 259 233 1.0
e 259 234 1.0
e 262 232 3.0
e 262 256 4.0
e 264 252 1.0
e 264 218 7.0
e 264 0 14.0
e 264 33 29.0
e 264 51 39.0
e 264 295 74.0
e 264 211 70.0
e 264 55 47.0
e 264 231 23.0
e 264 190 2.0
e 264 77 56.0
e 264 127 33.0
e 264 71 82.0
e 264 195 54.0
e 264 279 74.0
e 264 62 87.0
e 264 112 24.0
e 264 284 87.0
e 264 196 12.0
e 264 39 98.0
e 264 118 90.0
e 264 246 6.0
e 264 255 3.0
e 264 113 84.0
e 264 193 86.0
e 264 114 85.0
e 264 172 21.0
e 264 142 55.0
e 264 18 12.0
e 264 129 98.0
e 264 272 83.0
e 264 265 94.0
e 264 194 92.0
e 264 134 48.0
e 264 268 18.0
e 268 274 10.0
e 268 203 10.0
e 270 82 13.0
e 270 242 17.0
e 270 231 6.0
e 270 289 23.0
e 270 9 21.0
e 270 131 7.0
e 270 159 17.0
e 271 11 1.0
e 276 72 1.0
e 276 84 6.0
e 277 298 76.0
e 277 45 5.0
e 288 236 1.0
e 295 161 1.0
e 297 76 17.0
e 297 34 1.0
e 297 229 18.0
e 297 52 1.0
e 297 97 22.0
e 297 305 3.0
e 297 211 18.0
e 298 14 7.0
e 298 260 94.0
e 298 315 54.0
e 298 91 48.0
e 298 117 78.0
e 298 201 75.0
e 298 74 90.0
e 298 130 52.0
e 298 138 54.0
e 298 302 35.0
e 298 58 57.0
e 298 316 68.0
e 298 102 13.0
e 298 49 80.0
e 298 269 85.0
e 298 172 96.0
e 298 245 26.0
e 298 223 75.0
e 298 272 4.0
e 298 237 20.0
e 298 206 26.0
e 298 25 34.0
e 298 164 55.0
e 298 66 90.0
e 298 293 69.0
e 298 234 77.0
e 298 221 30.0
e 298 248 38.0
e 298 104 55.0
e 298 257 9.0
e 298 136 59.0
e 298 314 98.0
e 298 166 19.0
e 300 141 1.0
e 300 145 2.0
e 306 266 15.0
e 306 133 15.0
e 306 100 24.0
e 306 10 9.0
e 306 245 7.0
e 306 102 23.0
e 306 75 18.0
e 310 274 1.0
e 310 247 4.0
e 311 269 4.0
e 311 139 4.0
e 311 189 5.0
e 313 206 33.0
e 313 85 5.0
e 313 216 3.0
e 313 197 22.0
e 313 296 7.0
e 313 127 16.0
e 313 289 5.0
e 313 86 3.0
e 313 182 3.0
e 313 249 8.0
e 313 66 36.0
e 313 204 19.0
e 313 266 31.0
e 313 220 16.0
e 313 230 22.0
e 319 137 6.0
e 319 29 1.0
